100 275928
33 92 49 36 20 48 65 50 25 30 64 87 55 53 18 72 69 56 99 68 15 51 6 70 88 76 2 85 95 28 32 29 17 23 12 79 43 100 98 9 21 80 83 59 61 52 19 39 77 10 35 24 44 38 90 75 47 81 71 16 73 4 37 82 26 67 13 41 78 62 31 94 96 5 54 45 34 27 60 42 84 8 91 11 93 22 58 86 46 74 63 89 66 40 97 3 14 7 57 1 
